
Gurobi 7.5.2 (linux64) logging started Sat Jun 23 17:24:35 2018

Changed value of parameter LogFile to result/ilp/simNo_5-n_100-m_40-s_4-minVAF_0.05-cov_2000-k_1-fn_0.10-fp_0.0001-na_0.15.ILP.gurobiSolverLog
   Prev: gurobi.log  Default: 
Changed value of parameter TimeLimit to 86400.0
   Prev: 1e+100  Min: 0.0  Max: 1e+100  Default: 1e+100
Optimize a model with 1265601 rows, 330440 columns and 3489120 nonzeros
Variable types: 0 continuous, 330440 integer (330440 binary)
Coefficient statistics:
  Matrix range     [9e-04, 2e+00]
  Objective range  [9e-01, 9e+00]
  Bounds range     [1e+00, 1e+00]
  RHS range        [9e-02, 2e+00]
Found heuristic solution: objective -8064.726566
Presolve removed 337144 rows and 214054 columns (presolve time = 7s) ...
Presolve removed 337144 rows and 214054 columns (presolve time = 10s) ...
Presolve removed 338448 rows and 214054 columns (presolve time = 15s) ...
Presolve removed 338662 rows and 214054 columns (presolve time = 20s) ...
Presolve removed 338662 rows and 214054 columns (presolve time = 26s) ...
Presolve removed 338662 rows and 214054 columns (presolve time = 30s) ...
Presolve removed 338662 rows and 214054 columns (presolve time = 35s) ...
Presolve removed 338662 rows and 214054 columns (presolve time = 43s) ...
Presolve removed 338662 rows and 214054 columns (presolve time = 45s) ...
Presolve removed 338662 rows and 214054 columns
Presolve time: 45.49s
Presolved: 926939 rows, 116386 columns, 2570400 nonzeros
Variable types: 0 continuous, 116386 integer (116386 binary)
Presolve removed 0 rows and 0 columns (presolve time = 5s) ...
Presolved: 116386 rows, 1043325 columns, 2686786 nonzeros

Presolve removed 116386 rows and 1043325 columns

Root simplex log...

Iteration    Objective       Primal Inf.    Dual Inf.      Time
       0    8.9737911e+00   0.000000e+00   6.651400e+04     59s
    5729   -9.2812494e+01   0.000000e+00   0.000000e+00     61s
    5729   -9.2812494e+01   0.000000e+00   0.000000e+00     63s

Root relaxation: objective -9.281249e+01, 5729 iterations, 12.89 seconds
Total elapsed time = 76.43s
Total elapsed time = 85.18s

    Nodes    |    Current Node    |     Objective Bounds      |     Work
 Expl Unexpl |  Obj  Depth IntInf | Incumbent    BestBd   Gap | It/Node Time

     0     0  -92.81249    0  441 -8064.7266  -92.81249  98.8%     -   94s
H    0     0                    -141.9544781  -92.81249  34.6%     -  107s
     0     0  -99.67799    0  399 -141.95448  -99.67799  29.8%     -  124s
     0     0 -105.67874    0  415 -141.95448 -105.67874  25.6%     -  156s
     0     0 -105.67874    0  413 -141.95448 -105.67874  25.6%     -  175s
     0     0 -106.23365    0  412 -141.95448 -106.23365  25.2%     -  186s
     0     0 -106.23365    0  412 -141.95448 -106.23365  25.2%     -  200s
     0     0 -107.66250    0  450 -141.95448 -107.66250  24.2%     -  215s
     0     0 -108.24683    0  386 -141.95448 -108.24683  23.7%     -  240s
     0     0 -108.29843    0  415 -141.95448 -108.29843  23.7%     -  250s
     0     0 -108.29843    0  415 -141.95448 -108.29843  23.7%     -  258s
     0     0 -109.21447    0  384 -141.95448 -109.21447  23.1%     -  271s
     0     0 -109.21447    0  393 -141.95448 -109.21447  23.1%     -  285s
     0     0 -110.62135    0  430 -141.95448 -110.62135  22.1%     -  298s
     0     0 -110.77601    0  399 -141.95448 -110.77601  22.0%     -  316s
     0     0 -110.77609    0  427 -141.95448 -110.77609  22.0%     -  323s
     0     0 -110.77622    0  389 -141.95448 -110.77622  22.0%     -  337s
     0     0 -110.77622    0  387 -141.95448 -110.77622  22.0%     -  350s
     0     0 -112.61514    0  388 -141.95448 -112.61514  20.7%     -  363s
     0     0 -112.68426    0  416 -141.95448 -112.68426  20.6%     -  379s
     0     0 -112.70329    0  418 -141.95448 -112.70329  20.6%     -  389s
     0     0 -112.70329    0  419 -141.95448 -112.70329  20.6%     -  398s
     0     0 -113.59130    0  429 -141.95448 -113.59130  20.0%     -  412s
     0     0 -113.88194    0  452 -141.95448 -113.88194  19.8%     -  426s
     0     0 -113.93788    0  466 -141.95448 -113.93788  19.7%     -  434s
     0     0 -115.54847    0  397 -141.95448 -115.54847  18.6%     -  449s
     0     0 -115.77043    0  393 -141.95448 -115.77043  18.4%     -  464s
     0     0 -115.77043    0  395 -141.95448 -115.77043  18.4%     -  473s
     0     0 -115.95513    0  451 -141.95448 -115.95513  18.3%     -  488s
     0     0 -115.97035    0  444 -141.95448 -115.97035  18.3%     -  502s
     0     0 -116.00267    0  446 -141.95448 -116.00267  18.3%     -  514s
     0     0 -116.00267    0  447 -141.95448 -116.00267  18.3%     -  523s
     0     0 -117.12536    0  434 -141.95448 -117.12536  17.5%     -  540s
     0     0 -117.92475    0  426 -141.95448 -117.92475  16.9%     -  556s
     0     0 -117.92475    0  427 -141.95448 -117.92475  16.9%     -  564s
     0     0 -118.60594    0  437 -141.95448 -118.60594  16.4%     -  578s
     0     0 -118.68117    0  434 -141.95448 -118.68117  16.4%     -  591s
     0     0 -118.68307    0  439 -141.95448 -118.68307  16.4%     -  599s
     0     0 -119.71500    0  404 -141.95448 -119.71500  15.7%     -  614s
     0     0 -120.10211    0  433 -141.95448 -120.10211  15.4%     -  628s
     0     0 -120.22254    0  464 -141.95448 -120.22254  15.3%     -  637s
     0     0 -120.22254    0  465 -141.95448 -120.22254  15.3%     -  648s
     0     0 -120.57638    0  462 -141.95448 -120.57638  15.1%     -  664s
     0     0 -120.93816    0  470 -141.95448 -120.93816  14.8%     -  684s
     0     0 -120.93951    0  471 -141.95448 -120.93951  14.8%     -  694s
     0     0 -120.93951    0  454 -141.95448 -120.93951  14.8%     -  711s
     0     0 -120.97232    0  461 -141.95448 -120.97232  14.8%     -  726s
     0     0 -121.23244    0  467 -141.95448 -121.23244  14.6%     -  737s
     0     0 -121.24532    0  468 -141.95448 -121.24532  14.6%     -  747s
     0     0 -121.28625    0  466 -141.95448 -121.28625  14.6%     -  757s
     0     0 -121.29190    0  468 -141.95448 -121.29190  14.6%     -  767s
     0     0 -121.29190    0  468 -141.95448 -121.29190  14.6%     -  775s
     0     0 -121.63759    0  443 -141.95448 -121.63759  14.3%     -  793s
     0     0 -121.84430    0  466 -141.95448 -121.84430  14.2%     -  807s
     0     0 -121.88778    0  473 -141.95448 -121.88778  14.1%     -  815s
     0     0 -121.88778    0  474 -141.95448 -121.88778  14.1%     -  824s
     0     0 -122.65296    0  469 -141.95448 -122.65296  13.6%     -  843s
     0     0 -122.78968    0  468 -141.95448 -122.78968  13.5%     -  860s
     0     0 -122.91532    0  462 -141.95448 -122.91532  13.4%     -  871s
     0     0 -122.92377    0  466 -141.95448 -122.92377  13.4%     -  881s
     0     0 -122.93220    0  468 -141.95448 -122.93220  13.4%     -  891s
     0     0 -122.93312    0  467 -141.95448 -122.93312  13.4%     -  899s
     0     0 -123.79344    0  471 -141.95448 -123.79344  12.8%     -  915s
     0     0 -124.00246    0  486 -141.95448 -124.00246  12.6%     -  933s
     0     0 -124.02092    0  487 -141.95448 -124.02092  12.6%     -  944s
     0     0 -124.04654    0  489 -141.95448 -124.04654  12.6%     -  952s
     0     0 -124.04718    0  489 -141.95448 -124.04718  12.6%     -  961s
     0     0 -124.24817    0  487 -141.95448 -124.24817  12.5%     -  976s
     0     0 -124.26529    0  486 -141.95448 -124.26529  12.5%     -  992s
     0     0 -124.29458    0  478 -141.95448 -124.29458  12.4%     - 1002s
     0     0 -124.30081    0  491 -141.95448 -124.30081  12.4%     - 1013s
     0     0 -124.31881    0  488 -141.95448 -124.31881  12.4%     - 1022s
     0     0 -124.32068    0  490 -141.95448 -124.32068  12.4%     - 1030s
     0     0 -124.43219    0  489 -141.95448 -124.43219  12.3%     - 1046s
     0     0 -124.49720    0  491 -141.95448 -124.49720  12.3%     - 1059s
     0     0 -124.53436    0  491 -141.95448 -124.53436  12.3%     - 1069s
     0     0 -124.56845    0  491 -141.95448 -124.56845  12.2%     - 1078s
     0     0 -124.57603    0  491 -141.95448 -124.57603  12.2%     - 1087s
     0     0 -124.57603    0  492 -141.95448 -124.57603  12.2%     - 1094s
     0     0 -124.75127    0  485 -141.95448 -124.75127  12.1%     - 1105s
     0     0 -124.78950    0  492 -141.95448 -124.78950  12.1%     - 1118s
     0     0 -124.79161    0  493 -141.95448 -124.79161  12.1%     - 1127s
     0     0 -125.54760    0  437 -141.95448 -125.54760  11.6%     - 1143s
     0     0 -125.56207    0  459 -141.95448 -125.56207  11.5%     - 1160s
     0     0 -125.56725    0  457 -141.95448 -125.56725  11.5%     - 1169s
     0     0 -125.57998    0  461 -141.95448 -125.57998  11.5%     - 1178s
     0     0 -125.58199    0  450 -141.95448 -125.58199  11.5%     - 1187s
     0     0 -125.61639    0  450 -141.95448 -125.61639  11.5%     - 1203s
     0     0 -125.62787    0  473 -141.95448 -125.62787  11.5%     - 1219s
     0     0 -125.62931    0  482 -141.95448 -125.62931  11.5%     - 1230s
     0     0 -125.63813    0  483 -141.95448 -125.63813  11.5%     - 1247s
     0     0 -125.64507    0  484 -141.95448 -125.64507  11.5%     - 1259s
     0     0 -125.64548    0  485 -141.95448 -125.64548  11.5%     - 1268s
     0     0 -125.64548    0  475 -141.95448 -125.64548  11.5%     - 1316s
     0     0 -125.64548    0  475 -141.95448 -125.64548  11.5%     - 1338s
     0     2 -125.68012    0  475 -141.95448 -125.68012  11.5%     - 1377s
     1     3 -128.18445    1  416 -141.95448 -125.68012  11.5%  1361 1381s
     3     5 -126.02917    2  398 -141.95448 -126.01366  11.2%   556 1386s
     4     6 -130.26229    2  411 -141.95448 -126.02939  11.2%   486 1390s
     5     7 -131.35611    3  415 -141.95448 -126.02939  11.2%   489 1396s
     7     9 -126.95925    4  432 -141.95448 -126.82912  10.7%   387 1401s
     9    11 -127.13921    6  416 -141.95448 -126.82912  10.7%   322 1406s
    11    13 -137.12763    7  245 -141.95448 -126.82912  10.7%   318 1413s
    12    14 -137.12763    8  226 -141.95448 -126.82912  10.7%   292 1415s
    14    14 -138.13175    9  205 -141.95448 -126.82912  10.7%   283 1422s
    16    14 -138.62501   10  201 -141.95448 -126.82912  10.7%   261 1426s
    19    15     cutoff   12      -141.95448 -126.82912  10.7%   232 1430s
    22    16 -140.28974   14  199 -141.95448 -126.82912  10.7%   215 1435s
    27    15 -131.84466    4  424 -141.95448 -127.13921  10.4%   195 1444s
    28    16 -135.91401    5  413 -141.95448 -127.13921  10.4%   192 1447s
    29    17 -138.50360    5  412 -141.95448 -127.13921  10.4%   190 1450s
    34    18 -140.72324    8  410 -141.95448 -127.13921  10.4%   164 1456s
    40    16 -130.77773    6  392 -141.95448 -127.15941  10.4%   149 1462s
    42    16 -134.80478    7  397 -141.95448 -127.15941  10.4%   159 1467s
    43    17 -138.11565    8  424 -141.95448 -127.15941  10.4%   159 1470s
    47    15 -132.16607    5  415 -141.95448 -128.18445  9.70%   157 1476s
    48    16 -135.97117    6  403 -141.95448 -128.18445  9.70%   160 1482s
    50    16 -141.41459    8  387 -141.95448 -128.18445  9.70%   157 1487s
    53    15 -137.71518    6  382 -141.95448 -128.18445  9.70%   157 1491s
    54    14 -141.78454    7  395 -141.95448 -128.18445  9.70%   158 1495s
    57    15 -128.89791    3  424 -141.95448 -128.18445  9.70%   154 1502s
    58    16 -132.06883    4  413 -141.95448 -128.18445  9.70%   153 1506s
    59    17 -137.24801    4  416 -141.95448 -128.18445  9.70%   155 1510s
    61    19 -135.39830    6  375 -141.95448 -128.18445  9.70%   154 1517s
    63    21 -136.50813    8  286 -141.95448 -128.18445  9.70%   151 1522s
    65    23 -138.72778    9  230 -141.95448 -128.18445  9.70%   149 1526s
    68    24 -139.73190   11  216 -141.95448 -128.18445  9.70%   146 1531s
    71    23     cutoff   12      -141.95448 -128.18445  9.70%   145 1535s
    73    25 -140.59510   14  208 -141.95448 -128.18445  9.70%   143 1540s
    77    23     cutoff   16      -141.95448 -128.18445  9.70%   137 1545s
    79    21     cutoff    2      -141.95448 -128.24904  9.65%   143 1550s
    80    22 -128.24904    8  401 -141.95448 -128.24904  9.65%   143 1555s
    81    23 -130.65366    9  423 -141.95448 -128.24904  9.65%   144 1561s
    83    25 -132.68833   11  396 -141.95448 -128.24904  9.65%   144 1567s
    84    26 -133.05827   12  423 -141.95448 -128.24904  9.65%   144 1570s
    86    28 -138.23745   14  362 -141.95448 -128.24904  9.65%   143 1575s
    89    29     cutoff   17      -141.95448 -128.24904  9.65%   140 1580s
    91    31 -141.06662   18  216 -141.95448 -128.24904  9.65%   140 1585s
    93    32 -141.67702   20  217 -141.95448 -128.24904  9.65%   139 1590s
    99    26     cutoff    9      -141.95448 -128.65712  9.37%   136 1595s
   100    27 -133.46246    8  455 -141.95448 -128.73936  9.31%   150 1603s
   101    28 -135.04485    9  429 -141.95448 -128.73936  9.31%   151 1607s
   102    29 -138.17048   10  419 -141.95448 -128.73936  9.31%   151 1612s
   104    31 -141.86989   12  372 -141.95448 -128.73936  9.31%   150 1616s
   109    26     cutoff    3      -141.95448 -130.26229  8.24%   147 1621s
   112    29 -132.48194    5  384 -141.95448 -130.26229  8.24%   146 1625s
   115    30 -133.59177    7  383 -141.95448 -130.26229  8.24%   144 1631s
   116    31 -141.36053    7  372 -141.95448 -130.26229  8.24%   148 1636s
   118    31     cutoff    8      -141.95448 -130.26229  8.24%   147 1640s
   121    29 -141.36053    9  374 -141.95448 -130.26229  8.24%   145 1645s
   124    28     cutoff   10      -141.95448 -130.26229  8.24%   146 1650s
   128    26     cutoff    3      -141.95448 -130.67498  7.95%   144 1655s
   130    26 -136.57228    4  397 -141.95448 -131.57851  7.31%   150 1664s
   131    27 -139.79077    5  397 -141.95448 -131.57851  7.31%   150 1669s
   132    27 -141.93643    6  371 -141.95448 -131.57851  7.31%   149 1671s
   136    23     cutoff   11      -141.95448 -132.06883  6.96%   148 1675s
   137    24 -138.50581    5  409 -141.95448 -132.31970  6.79%   156 1682s
   138    25 -140.94742    6  368 -141.95448 -132.31970  6.79%   156 1687s
   141    24     cutoff    8      -141.95448 -132.31970  6.79%   154 1690s
   144    23 -140.45666    4  365 -141.95448 -132.48194  6.67%   155 1696s
   149    22     cutoff    6      -141.95448 -132.48194  6.67%   152 1700s
   153    20     cutoff    6      -141.95448 -132.50641  6.66%   151 1705s
   156    19 -134.90798   13  394 -141.95448 -133.55686  5.92%   152 1710s
   158    21 -137.12763   15  384 -141.95448 -133.55686  5.92%   151 1716s
   161    22 -141.56692   17  230 -141.95448 -133.55686  5.92%   151 1720s
   169    20 -134.08145    9  448 -141.95448 -134.08145  5.55%   146 1728s
   170    21 -134.33714   10  450 -141.95448 -134.08145  5.55%   146 1734s
   171    22 -134.91871   11  479 -141.95448 -134.08145  5.55%   146 1738s
   172    23 -137.69046   11  434 -141.95448 -134.08145  5.55%   148 1743s
   173    24 -140.81609   12  416 -141.95448 -134.08145  5.55%   149 1748s
   177    22 -136.60503   12  442 -141.95448 -134.08145  5.55%   150 1754s
   178    23 -140.02991   13  429 -141.95448 -134.08145  5.55%   150 1757s
   181    22 -141.01168   14  420 -141.95448 -134.08145  5.55%   150 1760s
   184    21 -136.59315   10  436 -141.95448 -134.84339  5.01%   149 1765s
   189    18     cutoff    6      -141.95448 -135.01824  4.89%   148 1770s
   191    18 -136.43577   12  479 -141.95448 -135.41926  4.60%   149 1775s
   193    18     cutoff   13      -141.95448 -135.41926  4.60%   149 1780s
   198    15     cutoff    7      -141.95448 -135.95083  4.23%   146 1785s
   200    15 -139.34727   15  258 -141.95448 -136.50971  3.84%   148 1790s
   205    16 -140.65968   18  221 -141.95448 -136.50971  3.84%   147 1796s
   208    15     cutoff   20      -141.95448 -136.50971  3.84%   146 1800s
   211    14 -138.79955    6  393 -141.95448 -137.02383  3.47%   145 1806s
   215    11 -141.56692   14  359 -141.95448 -137.24801  3.32%   144 1813s
   217    11 -138.35783    5  418 -141.95448 -137.24801  3.32%   143 1815s
   222     8     cutoff    5      -141.95448 -137.61795  3.05%   142 1821s
   225     9 -139.85521   11  223 -141.95448 -137.62379  3.05%   143 1827s
   228    12 -140.84172   14  222 -141.95448 -137.62379  3.05%   142 1832s
   232    11     cutoff   16      -141.95448 -137.62379  3.05%   141 1835s
   237    10 -138.72778   10  277 -141.95448 -138.23745  2.62%   139 1841s
   241    12     cutoff   13      -141.95448 -138.23745  2.62%   137 1845s
   248    11 -140.47471   16  224 -141.95448 -138.63520  2.34%   135 1851s
   251    12 -141.16175   18  226 -141.95448 -138.63520  2.34%   134 1855s
   257     9 -140.94742   11  231 -141.95448 -138.90246  2.15%   133 1860s
   264     4     cutoff   12      -141.95448 -139.85521  1.48%   131 1865s

Cutting planes:
  Gomory: 5
  Zero half: 290

Explored 269 nodes (60694 simplex iterations) in 1870.24 seconds
Thread count was 1 (of 80 available processors)

Solution count 2: -141.954 -8064.73 

Optimal solution found (tolerance 1.00e-04)
Best objective -1.419544781196e+02, best bound -1.419544781196e+02, gap 0.0000%
